maxTime = 4;
shiftDuration = [2,1,0];
shiftValue = [1,1,2];
numTeachers = 5;
shiftName = ["regular","monitor","off"];
calendar = array2d(TEACHERs, TIME, [true, true, false, false, true, true, true, false, false, true, false, false, true, false, false, true, false, true, true, false ]);
teacherName = ["teacher1", "teacher2", "teacher3", "teacher4", "teacher5" ];
minNeeded = array2d(SHIFTs, TIME, [1, 1, 1, 1, 1, 1, 1, 1, 0, 0, 0, 0 ]);
inDayOfYear = [1, 1, 1, 1 ];
dayOfYear = [1 ];
inWeekOfYear = [1, 1, 1, 1 ];
weekOfYear = [1 ];
teacherCanDoShift = array2d(TEACHERs, 1..length(SHIFTs), [true, false, true, true, true, true, false, true, true, true, false, true, true, true, true ]);
